Minimize
  - 46 y_0 - 31 y_1 - 22 y_2 - 10 y_3 - 29 y_4 - 23 y_5 - 37 y_6 - 21 y_7
   - 40 y_8 - 29 y_9 - 73 y_10 - 45 y_11 - 15 y_12 - 35 y_13 - 49 y_14
   - 61 y_15 - 52 y_16 - 44 y_17 - 47 y_18 - 40 y_19 - 42 y_20 - 39 y_21
   - 19 y_22 - 46 y_23 - 24 y_24 - 46 y_25 - 42 y_26 - 36 y_27 - 40 y_29
   - 39 y_30 - 64 y_31 - 27 y_32 - 33 y_33 - 22 y_34 - 43 y_35 - 22 y_36
   - 33 y_37 - 39 y_38 - 28 y_39 - 27 y_40 - 30 y_41 - 67 y_42 - 52 y_43
   - 27 y_44 - 31 y_45 - 22 y_46 - 25 y_47 - 21 y_48 - 44 y_49
   + 1779 Constant
Subject To
 c_0: y_4 = 1
 c_1_0: y_0 + y_8 + y_16 + y_26 >= 1
 c_1_1: y_1 + y_9 + y_12 + y_14 + y_20 + y_22 + y_32 + y_41 + y_44 + y_46
   >= 1
 c_1_2: y_2 + y_3 + y_4 + y_6 + y_13 + y_21 + y_22 + y_36 + y_37 + y_39
   >= 1
 c_1_3: y_2 + y_3 + y_22 + y_28 + y_36 >= 1
 c_1_4: y_2 + y_4 + y_6 + y_13 + y_21 + y_22 + y_32 + y_36 + y_37 + y_39
   + y_41 + y_44 >= 1
 c_1_5: y_5 + y_7 + y_19 + y_34 + y_40 + y_47 + y_48 >= 1
 c_1_6: y_2 + y_4 + y_6 + y_13 + y_18 + y_21 + y_32 + y_37 + y_39 + y_41
   >= 1
 c_1_7: y_5 + y_7 + y_8 + y_12 + y_46 + y_47 >= 1
 c_1_8: y_0 + y_7 + y_8 + y_16 + y_26 + y_47 >= 1
 c_1_9: y_1 + y_9 + y_12 + y_20 + y_22 + y_32 + y_41 + y_44 + y_46 >= 1
 c_1_10: y_10 >= 1
 c_1_11: y_11 + y_17 + y_23 + y_29 + y_35 + y_45 >= 1
 c_1_12: y_1 + y_7 + y_9 + y_12 + y_22 + y_28 + y_46 + y_47 >= 1
 c_1_13: y_2 + y_4 + y_6 + y_13 + y_18 + y_21 + y_35 + y_36 + y_37 + y_39
   >= 1
 c_1_14: y_1 + y_14 + y_20 + y_43 >= 1
 c_1_15: y_15 + y_18 + y_35 + y_42 >= 1
 c_1_16: y_0 + y_8 + y_16 + y_26 >= 1
 c_1_17: y_11 + y_17 + y_23 + y_29 + y_45 >= 1
 c_1_18: y_6 + y_13 + y_15 + y_18 + y_21 + y_35 + y_37 + y_39 >= 1
 c_1_19: y_5 + y_19 + y_47 >= 1
 c_1_20: y_1 + y_9 + y_14 + y_20 + y_32 + y_41 + y_43 + y_44 >= 1
 c_1_21: y_2 + y_4 + y_6 + y_13 + y_18 + y_21 + y_32 + y_37 + y_39 + y_41
   >= 1
 c_1_22: y_1 + y_2 + y_3 + y_4 + y_9 + y_12 + y_22 + y_28 + y_32 + y_37
   + y_39 + y_41 + y_44 >= 1
 c_1_23: y_11 + y_17 + y_23 + y_29 + y_35 + y_45 >= 1
 c_1_24: y_24 + y_27 + y_30 + y_33 + y_40 + y_48 >= 1
 c_1_25: y_25 + y_30 + y_33 >= 1
 c_1_26: y_0 + y_8 + y_16 + y_26 >= 1
 c_1_27: y_24 + y_27 + y_30 + y_38 + y_40 + y_48 + y_49 >= 1
 c_1_28: y_3 + y_12 + y_22 + y_28 >= 1
 c_1_29: y_11 + y_17 + y_23 + y_29 + y_45 >= 1
 c_1_30: y_24 + y_25 + y_27 + y_30 + y_33 + y_49 >= 1
 c_1_31: y_31 >= 1
 c_1_32: y_1 + y_4 + y_6 + y_9 + y_20 + y_21 + y_22 + y_32 + y_37 + y_41
   + y_44 >= 1
 c_1_33: y_24 + y_25 + y_30 + y_33 >= 1
 c_1_34: y_5 + y_34 + y_38 + y_40 + y_47 + y_48 >= 1
 c_1_35: y_11 + y_13 + y_15 + y_18 + y_23 + y_35 >= 1
 c_1_36: y_2 + y_3 + y_4 + y_13 + y_36 + y_37 + y_39 + y_45 >= 1
 c_1_37: y_2 + y_4 + y_6 + y_13 + y_18 + y_21 + y_22 + y_32 + y_36 + y_37
   + y_39 + y_41 + y_44 >= 1
 c_1_38: y_27 + y_34 + y_38 + y_40 + y_48 + y_49 >= 1
 c_1_39: y_2 + y_4 + y_6 + y_13 + y_18 + y_21 + y_22 + y_36 + y_37 + y_39
   >= 1
 c_1_40: y_5 + y_24 + y_27 + y_34 + y_38 + y_40 + y_48 >= 1
 c_1_41: y_1 + y_4 + y_6 + y_9 + y_20 + y_21 + y_22 + y_32 + y_37 + y_41
   + y_44 >= 1
 c_1_42: y_15 + y_42 >= 1
 c_1_43: y_14 + y_20 + y_43 >= 1
 c_1_44: y_1 + y_4 + y_9 + y_20 + y_22 + y_32 + y_37 + y_41 + y_44 >= 1
 c_1_45: y_11 + y_17 + y_23 + y_29 + y_36 + y_45 >= 1
 c_1_46: y_1 + y_7 + y_9 + y_12 + y_46 + y_47 >= 1
 c_1_47: y_5 + y_7 + y_8 + y_12 + y_19 + y_34 + y_46 + y_47 >= 1
 c_1_48: y_5 + y_24 + y_27 + y_34 + y_38 + y_40 + y_48 >= 1
 c_1_49: y_27 + y_30 + y_38 + y_49 >= 1
Bounds
 Constant = 1
Binaries
 y_0 y_1 y_2 y_3 y_4 y_5 y_6 y_7 y_8 y_9 y_10 y_11 y_12 y_13 y_14 y_15 y_16
 y_17 y_18 y_19 y_20 y_21 y_22 y_23 y_24 y_25 y_26 y_27 y_28 y_29 y_30 y_31
 y_32 y_33 y_34 y_35 y_36 y_37 y_38 y_39 y_40 y_41 y_42 y_43 y_44 y_45 y_46
 y_47 y_48 y_49
End
